50
100
100
99
94
91
90
88
86
85
85
83
82
80
79
77
73
71
71
71
67
65
65
58
57
57
55
53
52
51
45
40
39
39
38
38
38
37
36
36
35
35
32
29
28
27
27
27
24
23
21
20
